120
1000
200
200
200
199
198
198
198
197
197
197
196
196
195
194
193
193
193
192
192
192
191
191
191
189
189
188
187
187
186
186
185
185
185
184
184
183
183
183
183
183
183
183
182
181
180
180
180
179
179
179
179
178
178
178
178
178
177
177
176
176
176
176
176
173
173
173
172
172
171
171
171
170
170
170
168
168
168
168
168
168
167
166
166
166
165
165
165
165
164
164
162
161
160
160
159
159
157
157
157
156
156
156
156
155
155
155
155
155
154
154
154
153
153
152
152
151
151
150
150
150
